WARNING: for repeatability, setting FPU to use double precision
============================[ Problem Statistics ]=============================
|                                                                             |
|  Number of variables:         45920                                         |
|  Number of clauses:          308483                                         |
|  Parse time:                   0.06 s                                       |
|                                                                             |
c ============================[ Search Statistics ]==============================
c | Conflicts |          ORIGINAL         |          LEARNT          | Progress |
c |           |    Vars  Clauses Literals |    Limit  Clauses Lit/Cl |          |
c ===============================================================================
c Switched to VSIDS.
c Switched to LRB.
c Switched to VSIDS.
c Switched to LRB.
c Switched to VSIDS.
c Switched to LRB.
c Switched to VSIDS.
c Switched to LRB.
c Switched to VSIDS.
c Switched to LRB.
c Switched to VSIDS.
c Switched to LRB.
c Switched to VSIDS.
c Switched to LRB.
c Switched to VSIDS.
c Switched to LRB.
c Switched to VSIDS.
c Switched to LRB.
c Switched to VSIDS.
c Switched to LRB.
c Switched to VSIDS.
c Switched to LRB.
c Switched to VSIDS.
c Switched to LRB.
c Switched to VSIDS.
c Switched to LRB.
c Switched to VSIDS.
c Switched to LRB.
c Switched to VSIDS.
c Switched to LRB.
c Switched to VSIDS.
c Switched to LRB.
c Switched to VSIDS.
CAREFUL: the definition is falsified in conflict 9244596 at DL 60 (has happened 1 times)
c Switched to LRB.
c ===============================================================================
restarts                  : 30228
conflicts                 : 9876065        (2780 /sec)
decisions                 : 39174272       (0.00 % random) (11027 /sec)
propagations              : 7971233112     (2243725 /sec)
conflict literals         : 675476911      (20.25 % deleted)

conflicts w/ DIP found    : 6771374        (68.56 % of conflicts)
conflicts w/ dangerous DIP: 1              (0.00 % of conflicts)
conflicts w/ DIP-learning : 71716          (0.73 % of conflicts)
decisions on ext vars     : 583381         (1.49 % of decisions)
total ext vars            : 4672        
tried delete ext vars     : 5           
deleted ext vars          : 5           
max ext vars              : 4667        

Memory used               : 707.00 MB
CPU time                  : 3552.68 s
DIP computation time      : 77.8756 s (2.19 % of total time)
ER_sel time               : 12.4985 s
ER_add time               : 0.023649 s
ER_delC time              : 0 s
ER_delV time              : 0.001767 s
ER_sub time               : 15.9473 s
ER_stat time              : 0 s

INDETERMINATE
